
Gurobi 7.5.2 (win64, Python) logging started 10/11/18 21:13:50

Academic license - for non-commercial use only

Gurobi 7.5.2 (win64, Python) logging started 10/11/18 21:17:38

Academic license - for non-commercial use only

Gurobi 7.5.2 (win64, Python) logging started 10/12/18 12:08:17

Academic license - for non-commercial use only

Gurobi 7.5.2 (win64, Python) logging started 10/12/18 12:21:22

Academic license - for non-commercial use only

Gurobi 7.5.2 (win64, Python) logging started 10/12/18 12:35:30

Academic license - for non-commercial use only

Gurobi 7.5.2 (win64, Python) logging started 10/12/18 12:36:45

Academic license - for non-commercial use only

Gurobi 7.5.2 (win64, Python) logging started 10/12/18 12:48:26

Academic license - for non-commercial use only
